# Solution for model TSP0
# Objective value = 5.13196
loc0,loc1 0
loc0,loc2 0
loc0,loc3 0
loc0,loc4 0
loc0,loc5 0
loc0,loc6 0
loc0,loc7 0
loc0,loc8 0
loc0,loc9 0
loc0,loc10 0
loc0,loc11 1
loc0,loc12 0
loc0,loc13 0
loc0,loc14 0
loc0,loc15 0
loc0,loc16 0
loc0,loc17 0
loc0,loc18 0
loc0,loc19 0
loc0,loc20 0
loc0,loc21 0
loc0,loc22 0
loc0,loc23 0
loc0,loc24 0
loc0,loc25 0
loc0,loc26 0
loc0,loc27 0
loc0,loc28 0
loc0,loc29 0
loc0,loc30 0
loc0,loc31 0
loc0,loc32 0
loc0,loc33 0
loc0,loc34 0
loc0,loc35 0
loc0,loc36 0
loc0,loc37 0
loc0,loc38 0
loc0,loc39 0
loc0,loc40 0
loc0,loc41 0
loc0,loc42 0
loc0,loc43 0
loc0,loc44 0
loc0,loc45 0
loc0,loc46 0
loc0,loc47 0
loc0,loc48 0
loc0,loc49 0
loc1,loc0 0
loc1,loc6 0
loc1,loc12 0
loc1,loc18 0
loc1,loc24 0
loc1,loc30 0
loc1,loc36 0
loc1,loc42 0
loc1,loc48 0
loc2,loc0 0
loc2,loc3 0
loc2,loc6 0
loc2,loc9 0
loc2,loc12 0
loc2,loc15 0
loc2,loc18 0
loc2,loc21 0
loc2,loc24 0
loc2,loc27 0
loc2,loc30 0
loc2,loc33 0
loc2,loc36 0
loc2,loc39 0
loc2,loc42 0
loc2,loc45 0
loc2,loc48 0
loc3,loc0 0
loc3,loc2 0
loc3,loc4 0
loc3,loc6 0
loc3,loc8 0
loc3,loc10 0
loc3,loc12 0
loc3,loc14 0
loc3,loc16 0
loc3,loc18 0
loc3,loc20 0
loc3,loc22 0
loc3,loc24 0
loc3,loc26 0
loc3,loc28 0
loc3,loc30 0
loc3,loc32 0
loc3,loc34 0
loc3,loc36 0
loc3,loc38 0
loc3,loc40 0
loc3,loc42 0
loc3,loc44 0
loc3,loc46 0
loc3,loc48 0
loc4,loc0 0
loc4,loc3 0
loc4,loc6 0
loc4,loc9 0
loc4,loc12 0
loc4,loc15 0
loc4,loc18 0
loc4,loc21 0
loc4,loc24 0
loc4,loc27 0
loc4,loc30 0
loc4,loc33 0
loc4,loc36 0
loc4,loc39 0
loc4,loc42 0
loc4,loc45 0
loc4,loc48 0
loc5,loc0 0
loc5,loc6 0
loc5,loc12 0
loc5,loc18 0
loc5,loc24 0
loc5,loc30 0
loc5,loc36 0
loc5,loc42 0
loc5,loc48 0
loc6,loc0 0
loc6,loc1 0
loc6,loc2 0
loc6,loc3 0
loc6,loc4 0
loc6,loc5 0
loc6,loc7 0
loc6,loc8 0
loc6,loc9 0
loc6,loc10 0
loc6,loc11 0
loc6,loc12 0
loc6,loc13 0
loc6,loc14 0
loc6,loc15 0
loc6,loc16 0
loc6,loc17 0
loc6,loc18 0
loc6,loc19 0
loc6,loc20 0
loc6,loc21 0
loc6,loc22 0
loc6,loc23 0
loc6,loc24 0
loc6,loc25 0
loc6,loc26 0
loc6,loc27 0
loc6,loc28 0
loc6,loc29 0
loc6,loc30 0
loc6,loc31 0
loc6,loc32 0
loc6,loc33 0
loc6,loc34 0
loc6,loc35 0
loc6,loc36 0
loc6,loc37 0
loc6,loc38 0
loc6,loc39 0
loc6,loc40 0
loc6,loc41 0
loc6,loc42 0
loc6,loc43 0
loc6,loc44 0
loc6,loc45 0
loc6,loc46 0
loc6,loc47 0
loc6,loc48 0
loc6,loc49 0
loc7,loc0 0
loc7,loc6 0
loc7,loc12 0
loc7,loc18 0
loc7,loc24 0
loc7,loc30 0
loc7,loc36 0
loc7,loc42 0
loc7,loc48 0
loc8,loc0 0
loc8,loc3 0
loc8,loc6 0
loc8,loc9 0
loc8,loc12 0
loc8,loc15 0
loc8,loc18 0
loc8,loc21 0
loc8,loc24 0
loc8,loc27 0
loc8,loc30 0
loc8,loc33 0
loc8,loc36 0
loc8,loc39 0
loc8,loc42 0
loc8,loc45 0
loc8,loc48 0
loc9,loc0 0
loc9,loc2 0
loc9,loc4 0
loc9,loc6 0
loc9,loc8 0
loc9,loc10 0
loc9,loc12 0
loc9,loc14 0
loc9,loc16 0
loc9,loc18 0
loc9,loc20 0
loc9,loc22 0
loc9,loc24 0
loc9,loc26 0
loc9,loc28 0
loc9,loc30 0
loc9,loc32 0
loc9,loc34 0
loc9,loc36 0
loc9,loc38 0
loc9,loc40 0
loc9,loc42 0
loc9,loc44 0
loc9,loc46 0
loc9,loc48 0
loc10,loc0 0
loc10,loc3 0
loc10,loc6 0
loc10,loc9 0
loc10,loc12 0
loc10,loc15 0
loc10,loc18 0
loc10,loc21 0
loc10,loc24 0
loc10,loc27 0
loc10,loc30 0
loc10,loc33 0
loc10,loc36 0
loc10,loc39 0
loc10,loc42 0
loc10,loc45 0
loc10,loc48 0
loc11,loc0 1
loc11,loc6 0
loc11,loc12 0
loc11,loc18 0
loc11,loc24 0
loc11,loc30 0
loc11,loc36 0
loc11,loc42 0
loc11,loc48 0
loc12,loc0 0
loc12,loc1 0
loc12,loc2 0
loc12,loc3 0
loc12,loc4 0
loc12,loc5 0
loc12,loc6 0
loc12,loc7 0
loc12,loc8 0
loc12,loc9 0
loc12,loc10 0
loc12,loc11 0
loc12,loc13 0
loc12,loc14 0
loc12,loc15 0
loc12,loc16 0
loc12,loc17 0
loc12,loc18 0
loc12,loc19 0
loc12,loc20 0
loc12,loc21 0
loc12,loc22 0
loc12,loc23 0
loc12,loc24 0
loc12,loc25 0
loc12,loc26 0
loc12,loc27 0
loc12,loc28 0
loc12,loc29 0
loc12,loc30 0
loc12,loc31 0
loc12,loc32 0
loc12,loc33 0
loc12,loc34 0
loc12,loc35 0
loc12,loc36 0
loc12,loc37 0
loc12,loc38 0
loc12,loc39 0
loc12,loc40 0
loc12,loc41 0
loc12,loc42 0
loc12,loc43 0
loc12,loc44 0
loc12,loc45 0
loc12,loc46 0
loc12,loc47 0
loc12,loc48 0
loc12,loc49 0
loc13,loc0 0
loc13,loc6 0
loc13,loc12 0
loc13,loc18 0
loc13,loc24 0
loc13,loc30 0
loc13,loc36 0
loc13,loc42 0
loc13,loc48 0
loc14,loc0 0
loc14,loc3 0
loc14,loc6 0
loc14,loc9 0
loc14,loc12 0
loc14,loc15 0
loc14,loc18 0
loc14,loc21 0
loc14,loc24 0
loc14,loc27 0
loc14,loc30 0
loc14,loc33 0
loc14,loc36 0
loc14,loc39 0
loc14,loc42 0
loc14,loc45 0
loc14,loc48 0
loc15,loc0 0
loc15,loc2 0
loc15,loc4 0
loc15,loc6 0
loc15,loc8 0
loc15,loc10 0
loc15,loc12 0
loc15,loc14 0
loc15,loc16 0
loc15,loc18 0
loc15,loc20 0
loc15,loc22 0
loc15,loc24 0
loc15,loc26 0
loc15,loc28 0
loc15,loc30 0
loc15,loc32 0
loc15,loc34 0
loc15,loc36 0
loc15,loc38 0
loc15,loc40 0
loc15,loc42 0
loc15,loc44 0
loc15,loc46 0
loc15,loc48 0
loc16,loc0 0
loc16,loc3 0
loc16,loc6 0
loc16,loc9 0
loc16,loc12 0
loc16,loc15 0
loc16,loc18 0
loc16,loc21 0
loc16,loc24 0
loc16,loc27 0
loc16,loc30 0
loc16,loc33 0
loc16,loc36 0
loc16,loc39 0
loc16,loc42 0
loc16,loc45 0
loc16,loc48 0
loc17,loc0 0
loc17,loc6 0
loc17,loc12 0
loc17,loc18 0
loc17,loc24 0
loc17,loc30 0
loc17,loc36 0
loc17,loc42 0
loc17,loc48 0
loc18,loc0 0
loc18,loc1 0
loc18,loc2 0
loc18,loc3 0
loc18,loc4 0
loc18,loc5 0
loc18,loc6 0
loc18,loc7 0
loc18,loc8 0
loc18,loc9 0
loc18,loc10 0
loc18,loc11 0
loc18,loc12 0
loc18,loc13 0
loc18,loc14 0
loc18,loc15 0
loc18,loc16 0
loc18,loc17 0
loc18,loc19 0
loc18,loc20 0
loc18,loc21 0
loc18,loc22 0
loc18,loc23 0
loc18,loc24 0
loc18,loc25 0
loc18,loc26 0
loc18,loc27 0
loc18,loc28 0
loc18,loc29 0
loc18,loc30 0
loc18,loc31 0
loc18,loc32 0
loc18,loc33 0
loc18,loc34 0
loc18,loc35 0
loc18,loc36 0
loc18,loc37 0
loc18,loc38 0
loc18,loc39 0
loc18,loc40 0
loc18,loc41 0
loc18,loc42 0
loc18,loc43 0
loc18,loc44 0
loc18,loc45 0
loc18,loc46 0
loc18,loc47 0
loc18,loc48 0
loc18,loc49 0
loc19,loc0 0
loc19,loc6 0
loc19,loc12 0
loc19,loc18 0
loc19,loc24 0
loc19,loc30 0
loc19,loc36 0
loc19,loc42 0
loc19,loc48 0
loc20,loc0 0
loc20,loc3 0
loc20,loc6 0
loc20,loc9 0
loc20,loc12 0
loc20,loc15 0
loc20,loc18 0
loc20,loc21 0
loc20,loc24 0
loc20,loc27 0
loc20,loc30 0
loc20,loc33 0
loc20,loc36 0
loc20,loc39 0
loc20,loc42 0
loc20,loc45 0
loc20,loc48 0
loc21,loc0 0
loc21,loc2 0
loc21,loc4 0
loc21,loc6 0
loc21,loc8 0
loc21,loc10 0
loc21,loc12 0
loc21,loc14 0
loc21,loc16 0
loc21,loc18 0
loc21,loc20 0
loc21,loc22 0
loc21,loc24 0
loc21,loc26 0
loc21,loc28 0
loc21,loc30 0
loc21,loc32 0
loc21,loc34 0
loc21,loc36 0
loc21,loc38 0
loc21,loc40 0
loc21,loc42 0
loc21,loc44 0
loc21,loc46 0
loc21,loc48 0
loc22,loc0 0
loc22,loc3 0
loc22,loc6 0
loc22,loc9 0
loc22,loc12 0
loc22,loc15 0
loc22,loc18 0
loc22,loc21 0
loc22,loc24 0
loc22,loc27 0
loc22,loc30 0
loc22,loc33 0
loc22,loc36 0
loc22,loc39 0
loc22,loc42 0
loc22,loc45 0
loc22,loc48 0
loc23,loc0 0
loc23,loc6 0
loc23,loc12 0
loc23,loc18 0
loc23,loc24 0
loc23,loc30 0
loc23,loc36 0
loc23,loc42 0
loc23,loc48 0
loc24,loc0 0
loc24,loc1 0
loc24,loc2 0
loc24,loc3 0
loc24,loc4 0
loc24,loc5 0
loc24,loc6 0
loc24,loc7 0
loc24,loc8 0
loc24,loc9 0
loc24,loc10 0
loc24,loc11 0
loc24,loc12 0
loc24,loc13 0
loc24,loc14 0
loc24,loc15 0
loc24,loc16 0
loc24,loc17 0
loc24,loc18 0
loc24,loc19 0
loc24,loc20 0
loc24,loc21 0
loc24,loc22 0
loc24,loc23 0
loc24,loc25 0
loc24,loc26 0
loc24,loc27 0
loc24,loc28 0
loc24,loc29 0
loc24,loc30 0
loc24,loc31 0
loc24,loc32 0
loc24,loc33 0
loc24,loc34 0
loc24,loc35 0
loc24,loc36 0
loc24,loc37 0
loc24,loc38 0
loc24,loc39 0
loc24,loc40 0
loc24,loc41 0
loc24,loc42 0
loc24,loc43 0
loc24,loc44 0
loc24,loc45 0
loc24,loc46 0
loc24,loc47 0
loc24,loc48 0
loc24,loc49 0
loc25,loc0 0
loc25,loc6 0
loc25,loc12 0
loc25,loc18 0
loc25,loc24 0
loc25,loc30 0
loc25,loc36 0
loc25,loc42 0
loc25,loc48 0
loc26,loc0 0
loc26,loc3 0
loc26,loc6 0
loc26,loc9 0
loc26,loc12 0
loc26,loc15 0
loc26,loc18 0
loc26,loc21 0
loc26,loc24 0
loc26,loc27 0
loc26,loc30 0
loc26,loc33 0
loc26,loc36 0
loc26,loc39 0
loc26,loc42 0
loc26,loc45 0
loc26,loc48 0
loc27,loc0 0
loc27,loc2 0
loc27,loc4 0
loc27,loc6 0
loc27,loc8 0
loc27,loc10 0
loc27,loc12 0
loc27,loc14 0
loc27,loc16 0
loc27,loc18 0
loc27,loc20 0
loc27,loc22 0
loc27,loc24 0
loc27,loc26 0
loc27,loc28 0
loc27,loc30 0
loc27,loc32 0
loc27,loc34 0
loc27,loc36 0
loc27,loc38 0
loc27,loc40 0
loc27,loc42 0
loc27,loc44 0
loc27,loc46 0
loc27,loc48 0
loc28,loc0 0
loc28,loc3 0
loc28,loc6 0
loc28,loc9 0
loc28,loc12 0
loc28,loc15 0
loc28,loc18 0
loc28,loc21 0
loc28,loc24 0
loc28,loc27 0
loc28,loc30 0
loc28,loc33 0
loc28,loc36 0
loc28,loc39 0
loc28,loc42 0
loc28,loc45 0
loc28,loc48 0
loc29,loc0 0
loc29,loc6 0
loc29,loc12 0
loc29,loc18 0
loc29,loc24 0
loc29,loc30 0
loc29,loc36 0
loc29,loc42 0
loc29,loc48 0
loc30,loc0 0
loc30,loc1 0
loc30,loc2 0
loc30,loc3 0
loc30,loc4 0
loc30,loc5 0
loc30,loc6 0
loc30,loc7 0
loc30,loc8 0
loc30,loc9 0
loc30,loc10 0
loc30,loc11 0
loc30,loc12 0
loc30,loc13 0
loc30,loc14 0
loc30,loc15 0
loc30,loc16 0
loc30,loc17 0
loc30,loc18 0
loc30,loc19 0
loc30,loc20 0
loc30,loc21 0
loc30,loc22 0
loc30,loc23 0
loc30,loc24 0
loc30,loc25 0
loc30,loc26 0
loc30,loc27 0
loc30,loc28 0
loc30,loc29 0
loc30,loc31 0
loc30,loc32 0
loc30,loc33 0
loc30,loc34 0
loc30,loc35 0
loc30,loc36 0
loc30,loc37 0
loc30,loc38 0
loc30,loc39 0
loc30,loc40 0
loc30,loc41 0
loc30,loc42 0
loc30,loc43 0
loc30,loc44 0
loc30,loc45 0
loc30,loc46 0
loc30,loc47 0
loc30,loc48 0
loc30,loc49 0
loc31,loc0 0
loc31,loc6 0
loc31,loc12 0
loc31,loc18 0
loc31,loc24 0
loc31,loc30 0
loc31,loc36 0
loc31,loc42 0
loc31,loc48 0
loc32,loc0 0
loc32,loc3 0
loc32,loc6 0
loc32,loc9 0
loc32,loc12 0
loc32,loc15 0
loc32,loc18 0
loc32,loc21 0
loc32,loc24 0
loc32,loc27 0
loc32,loc30 0
loc32,loc33 0
loc32,loc36 0
loc32,loc39 0
loc32,loc42 0
loc32,loc45 0
loc32,loc48 0
loc33,loc0 0
loc33,loc2 0
loc33,loc4 0
loc33,loc6 0
loc33,loc8 0
loc33,loc10 0
loc33,loc12 0
loc33,loc14 0
loc33,loc16 0
loc33,loc18 0
loc33,loc20 0
loc33,loc22 0
loc33,loc24 0
loc33,loc26 0
loc33,loc28 0
loc33,loc30 0
loc33,loc32 0
loc33,loc34 0
loc33,loc36 0
loc33,loc38 0
loc33,loc40 0
loc33,loc42 0
loc33,loc44 0
loc33,loc46 0
loc33,loc48 0
loc34,loc0 0
loc34,loc3 0
loc34,loc6 0
loc34,loc9 0
loc34,loc12 0
loc34,loc15 0
loc34,loc18 0
loc34,loc21 0
loc34,loc24 0
loc34,loc27 0
loc34,loc30 0
loc34,loc33 0
loc34,loc36 0
loc34,loc39 0
loc34,loc42 0
loc34,loc45 0
loc34,loc48 0
loc35,loc0 0
loc35,loc6 0
loc35,loc12 0
loc35,loc18 0
loc35,loc24 0
loc35,loc30 0
loc35,loc36 0
loc35,loc42 0
loc35,loc48 0
loc36,loc0 0
loc36,loc1 0
loc36,loc2 0
loc36,loc3 0
loc36,loc4 0
loc36,loc5 0
loc36,loc6 0
loc36,loc7 0
loc36,loc8 0
loc36,loc9 0
loc36,loc10 0
loc36,loc11 0
loc36,loc12 0
loc36,loc13 0
loc36,loc14 0
loc36,loc15 0
loc36,loc16 0
loc36,loc17 0
loc36,loc18 0
loc36,loc19 0
loc36,loc20 0
loc36,loc21 0
loc36,loc22 0
loc36,loc23 0
loc36,loc24 0
loc36,loc25 0
loc36,loc26 0
loc36,loc27 0
loc36,loc28 0
loc36,loc29 0
loc36,loc30 0
loc36,loc31 0
loc36,loc32 0
loc36,loc33 0
loc36,loc34 0
loc36,loc35 0
loc36,loc37 0
loc36,loc38 0
loc36,loc39 0
loc36,loc40 0
loc36,loc41 0
loc36,loc42 0
loc36,loc43 0
loc36,loc44 0
loc36,loc45 0
loc36,loc46 0
loc36,loc47 0
loc36,loc48 0
loc36,loc49 0
loc37,loc0 0
loc37,loc6 0
loc37,loc12 0
loc37,loc18 0
loc37,loc24 0
loc37,loc30 0
loc37,loc36 0
loc37,loc42 0
loc37,loc48 0
loc38,loc0 0
loc38,loc3 0
loc38,loc6 0
loc38,loc9 0
loc38,loc12 0
loc38,loc15 0
loc38,loc18 0
loc38,loc21 0
loc38,loc24 0
loc38,loc27 0
loc38,loc30 0
loc38,loc33 0
loc38,loc36 0
loc38,loc39 0
loc38,loc42 0
loc38,loc45 0
loc38,loc48 0
loc39,loc0 0
loc39,loc2 0
loc39,loc4 0
loc39,loc6 0
loc39,loc8 0
loc39,loc10 0
loc39,loc12 0
loc39,loc14 0
loc39,loc16 0
loc39,loc18 0
loc39,loc20 0
loc39,loc22 0
loc39,loc24 0
loc39,loc26 0
loc39,loc28 0
loc39,loc30 0
loc39,loc32 0
loc39,loc34 0
loc39,loc36 0
loc39,loc38 0
loc39,loc40 0
loc39,loc42 0
loc39,loc44 0
loc39,loc46 0
loc39,loc48 0
loc40,loc0 0
loc40,loc3 0
loc40,loc6 0
loc40,loc9 0
loc40,loc12 0
loc40,loc15 0
loc40,loc18 0
loc40,loc21 0
loc40,loc24 0
loc40,loc27 0
loc40,loc30 0
loc40,loc33 0
loc40,loc36 0
loc40,loc39 0
loc40,loc42 0
loc40,loc45 0
loc40,loc48 0
loc41,loc0 0
loc41,loc6 0
loc41,loc12 0
loc41,loc18 0
loc41,loc24 0
loc41,loc30 0
loc41,loc36 0
loc41,loc42 0
loc41,loc48 0
loc42,loc0 0
loc42,loc1 0
loc42,loc2 0
loc42,loc3 0
loc42,loc4 0
loc42,loc5 0
loc42,loc6 0
loc42,loc7 0
loc42,loc8 0
loc42,loc9 0
loc42,loc10 0
loc42,loc11 0
loc42,loc12 0
loc42,loc13 0
loc42,loc14 0
loc42,loc15 0
loc42,loc16 0
loc42,loc17 0
loc42,loc18 0
loc42,loc19 0
loc42,loc20 0
loc42,loc21 0
loc42,loc22 0
loc42,loc23 0
loc42,loc24 0
loc42,loc25 0
loc42,loc26 0
loc42,loc27 0
loc42,loc28 0
loc42,loc29 0
loc42,loc30 0
loc42,loc31 0
loc42,loc32 0
loc42,loc33 0
loc42,loc34 0
loc42,loc35 0
loc42,loc36 0
loc42,loc37 0
loc42,loc38 0
loc42,loc39 0
loc42,loc40 0
loc42,loc41 0
loc42,loc43 0
loc42,loc44 0
loc42,loc45 0
loc42,loc46 0
loc42,loc47 0
loc42,loc48 0
loc42,loc49 0
loc43,loc0 0
loc43,loc6 0
loc43,loc12 0
loc43,loc18 0
loc43,loc24 0
loc43,loc30 0
loc43,loc36 0
loc43,loc42 0
loc43,loc48 0
loc44,loc0 0
loc44,loc3 0
loc44,loc6 0
loc44,loc9 0
loc44,loc12 0
loc44,loc15 0
loc44,loc18 0
loc44,loc21 0
loc44,loc24 0
loc44,loc27 0
loc44,loc30 0
loc44,loc33 0
loc44,loc36 0
loc44,loc39 0
loc44,loc42 0
loc44,loc45 0
loc44,loc48 0
loc45,loc0 0
loc45,loc2 0
loc45,loc4 0
loc45,loc6 0
loc45,loc8 0
loc45,loc10 0
loc45,loc12 0
loc45,loc14 0
loc45,loc16 0
loc45,loc18 0
loc45,loc20 0
loc45,loc22 0
loc45,loc24 0
loc45,loc26 0
loc45,loc28 0
loc45,loc30 0
loc45,loc32 0
loc45,loc34 0
loc45,loc36 0
loc45,loc38 0
loc45,loc40 0
loc45,loc42 0
loc45,loc44 0
loc45,loc46 0
loc45,loc48 0
loc46,loc0 0
loc46,loc3 0
loc46,loc6 0
loc46,loc9 0
loc46,loc12 0
loc46,loc15 0
loc46,loc18 0
loc46,loc21 0
loc46,loc24 0
loc46,loc27 0
loc46,loc30 0
loc46,loc33 0
loc46,loc36 0
loc46,loc39 0
loc46,loc42 0
loc46,loc45 0
loc46,loc48 0
loc47,loc0 0
loc47,loc6 0
loc47,loc12 0
loc47,loc18 0
loc47,loc24 0
loc47,loc30 0
loc47,loc36 0
loc47,loc42 0
loc47,loc48 0
loc48,loc0 0
loc48,loc1 0
loc48,loc2 0
loc48,loc3 0
loc48,loc4 0
loc48,loc5 0
loc48,loc6 0
loc48,loc7 0
loc48,loc8 0
loc48,loc9 0
loc48,loc10 0
loc48,loc11 0
loc48,loc12 0
loc48,loc13 0
loc48,loc14 0
loc48,loc15 0
loc48,loc16 0
loc48,loc17 0
loc48,loc18 0
loc48,loc19 0
loc48,loc20 0
loc48,loc21 0
loc48,loc22 0
loc48,loc23 0
loc48,loc24 0
loc48,loc25 0
loc48,loc26 0
loc48,loc27 0
loc48,loc28 0
loc48,loc29 0
loc48,loc30 0
loc48,loc31 0
loc48,loc32 0
loc48,loc33 0
loc48,loc34 0
loc48,loc35 0
loc48,loc36 0
loc48,loc37 0
loc48,loc38 0
loc48,loc39 0
loc48,loc40 0
loc48,loc41 0
loc48,loc42 0
loc48,loc43 0
loc48,loc44 0
loc48,loc45 0
loc48,loc46 0
loc48,loc47 0
loc48,loc49 0
loc49,loc0 0
loc49,loc6 0
loc49,loc12 0
loc49,loc18 0
loc49,loc24 0
loc49,loc30 0
loc49,loc36 0
loc49,loc42 0
loc49,loc48 0
